Route #1: 1 5 45 48 46 1 
Route #2: 1 1 10 32 27 20 3 21 6 34 58 24 2 1 
Route #3: 1 22 54 36 30 49 44 28 31 18 1 
Route #4: 1 53 4 11 25 19 50 23 1 
Route #5: 1 47 33 52 8 37 57 15 35 1 
Route #6: 1 42 9 12 56 43 55 1 
Route #7: 1 39 26 17 13 38 1 
Route #8: 1 29 59 41 16 14 40 1 
Route #9: 1 51 7 1 

Cost 1972.2
Time 0.4909


 * Another infos *

 Iterations: 60 Time: 0.4909 sec - 0.0082 min - 0.0001 horas
0.0000 h 0.0082 min
Problem dimension: 60
